Route #1: 1 40 31 24 18 37 2 11 44 23 13 1
Route #2: 1 29 10 14 16 33 38 8 35 19 1
Route #3: 1 42 6 7 9 5 17 30 12 26 1
Route #4: 1 43 41 22 27 34 20 21 36 39 32 4 1
Route #5: 1 45 15 28 25 3 1
cost 887.1749410037229
